benchmarks/bfuzz0/1556917535320291146811914299371072219534.smt2
(set-logic QF_FP)
(declare-const x0 (_ FloatingPoint 11 53))
(declare-const x1 (_ FloatingPoint 11 53))
(declare-const x2 (_ FloatingPoint 11 53))
(declare-const x3 (_ FloatingPoint 11 53))
(declare-const x4 (_ FloatingPoint 11 53))
(declare-const x5 (_ FloatingPoint 11 53))
(declare-const x6 (_ FloatingPoint 11 53))
(declare-const x7 (_ FloatingPoint 11 53))
(declare-const x8 (_ FloatingPoint 11 53))
(assert (fp.eq (fp.mul RNE (fp.neg x5) (fp.div RNE x1 x8)) (fp.add RNE (fp.neg x3) (fp.mul RNE x3 x1))))
(assert (fp.lt (fp.neg (fp.sub RNE x7 x0)) (fp.mul RNE (fp.add RNE x5 x5) (fp.mul RNE x7 x2))))
(check-sat)
