db/data/1556917535320291146811914299371072219534.z3.out
sat
-------------------
1365.151799501
